58234
1 1 1 1 1 1 1 1 1 1 1 1 1 1 1 1 1 1 1 1 1 1 1 1 1 1 1 1 1 0
19 22 21 15 9 3 8 3 24 5 9 4 0 14 9 11 7 16 16 5 16 16 25 19 17 8 7 0 3 14 4 5 7 3 2 16 7 24 24 10 1 25 12 1 20 22 12 5 22 19 3 14 24 6 24 4 0 5 14 15 12 27 13 25 15 4 5 14 9 10 18 3 2 8 14 15 16 4 3 14 5 5 11 24 20 5 15 2 24 15 9 22 0 21 28 26 20 0 22 3 6 9 27 11 27 19 1 11 13 9 25 17 21 1 7 18 20 19 11 13 20 10 10 13 1 15 21 20 8 16 23 12 23 9 16 26 0 23 22 1 2 17 27 11 6 19 11 8 18 9 8 11 5 22 4 24 0 24 12 17 23 8 19 17 26 0 2 5 25 13 2 2 24 20 11 23 24 18 27 4 26 4 28 22 28 15 27 4 28 20 22 8 23 20 8 10 4 1 27 8